language ESSENCE' 1.0
letting w be 8
letting n be 64
letting noCrates be 1
letting noGoals be 1
letting pInit be 36
letting stps be 9
letting crates be [19]
letting goals be [14]
letting noWalls be 28
letting walls be [0, 1, 2, 3, 4, 5, 6, 7, 8, 15, 16, 23, 24, 31, 32, 39, 40, 47, 48, 55, 56, 57, 58, 59, 60, 61, 62, 63]